\ENCODING=ISO-8859-1
\Problem name: ilog.cplex

Minimize
 obj: 24 x1 + 74 x2 + 31 x3 + 51 x4 + 84 x5 + 57 x11 + 54 x12 + 86 x13 + 61 x14
      + 68 x15 + 57 x21 + 67 x22 + 29 x23 + 91 x24 + 71 x25 + 54 x31 + 54 x32
      + 65 x33 + 82 x34 + 94 x35 + 98 x36 + 81 x37 + 16 x38 + 61 x39 + 27 x40
      + 13 x46 + 92 x47 + 34 x48 + 94 x49 + 87 x50 + 54 x56 + 72 x57 + 41 x58
      + 12 x59 + 78 x60 + 54 x66 + 64 x67 + 65 x68 + 89 x69 + 89 x70 + 480 x76
      + 200 x78 + 320 x79 + 340 x81 + 300 x83
Subject To
 c1:  x1 + x2 + x3 + x4 + x5  = 1
 c3:  x11 + x12 + x13 + x14 + x15  = 1
 c5:  x21 + x22 + x23 + x24 + x25  = 1
 c7:  x31 + x32 + x33 + x34 + x35  = 1
 c9:  x36 + x37 + x38 + x39 + x40  = 1
 c11: x46 + x47 + x48 + x49 + x50  = 1
 c13: x56 + x57 + x58 + x59 + x60  = 1
 c15: x66 + x67 + x68 + x69 + x70  = 1
 c17: x1 + x11 + x21 + x31 + x36 + x46 + x56 + x66 - 3 x76 <= 0
 c19: x2 + x12 + x22 + x32 + x37 + x47 + x57 + x67 - x78 <= 0
 c21: x3 + x13 + x23 + x33 + x38 + x48 + x58 + x68 - 2 x79 <= 0
 c23: x4 + x14 + x24 + x34 + x39 + x49 + x59 + x69 - 4 x81 <= 0
 c25: x5 + x15 + x25 + x35 + x40 + x50 + x60 + x70 - x83 <= 0
Bounds
 0 <= x1 <= 1
 0 <= x2 <= 1
 0 <= x3 <= 1
 0 <= x4 <= 1
 0 <= x5 <= 1
 0 <= x11 <= 1
 0 <= x12 <= 1
 0 <= x13 <= 1
 0 <= x14 <= 1
 0 <= x15 <= 1
 0 <= x21 <= 1
 0 <= x22 <= 1
 0 <= x23 <= 1
 0 <= x24 <= 1
 0 <= x25 <= 1
 0 <= x31 <= 1
 0 <= x32 <= 1
 0 <= x33 <= 1
 0 <= x34 <= 1
 0 <= x35 <= 1
 0 <= x36 <= 1
 0 <= x37 <= 1
 0 <= x38 <= 1
 0 <= x39 <= 1
 0 <= x40 <= 1
 0 <= x46 <= 1
 0 <= x47 <= 1
 0 <= x48 <= 1
 0 <= x49 <= 1
 0 <= x50 <= 1
 0 <= x56 <= 1
 0 <= x57 <= 1
 0 <= x58 <= 1
 0 <= x59 <= 1
 0 <= x60 <= 1
 0 <= x66 <= 1
 0 <= x67 <= 1
 0 <= x68 <= 1
 0 <= x69 <= 1
 0 <= x70 <= 1
 0 <= x76 <= 1
 0 <= x78 <= 1
 0 <= x79 <= 1
 0 <= x81 <= 1
 0 <= x83 <= 1
Binaries
 x1  x2  x3  x4  x5  x11  x12  x13  x14  x15  x21  x22  x23  x24  x25  x31 
 x32  x33  x34  x35  x36  x37  x38  x39  x40  x46  x47  x48  x49  x50  x56 
 x57  x58  x59  x60  x66  x67  x68  x69  x70  x76  x78  x79  x81  x83 
End
